courses = 5;
periods = 20;
rooms = 2;

%
% data (from the Alma-0 program timetable.a0)
%
available = array2d(1..courses,1..periods,
  [
   % 1 2 3 4 5 6 7 8 9 0 1 2 3 4 5 6 7 8 9 0  
     0,0,1,1,1,1,1,1,1,1,1,1,0,1,1,0,1,1,1,1,
     1,1,0,0,1,0,1,1,0,1,1,1,1,1,1,1,1,1,1,1,
     0,0,0,1,1,1,1,0,1,1,1,1,0,1,1,1,1,0,1,1,
     1,1,1,0,0,0,1,1,1,1,1,1,1,1,1,1,1,0,1,1,
     1,1,1,1,1,1,1,1,1,1,1,1,1,1,1,1,1,1,1,1,
  ]);

conflicts = [| 1,2 | 1, 5 | 2, 4 | 3, 5 | 4, 5 |];


nScs = 2;
crTempEdges = [| 2, 1 |];

requirement = [6,10,14,6,4];
